data;
set K:= K1 K2 K3 K4 K5 K6 K7 K8 K9 K10 K11 K12 K13 K14 K15 ;

set F:= F1 F2 F3 ;

set Q:= Q1 Q2 ;

param T:= 45;
param V: 
	K1  K2  K3  K4  K5  K6  K7  K8  K9  K10 K11 K12 K13 K14 K15 :=
Q1	1   1   1   1   1   1   1   1   1   0   0   0   0   0   0   
Q2	0   0   0   0   0   0   0   0   0   1   1   1   1   1   1   
; # if resorce k is of type q

param TF:= 
K1 6
K2 6
K3 6
K4 6
K5 6
K6 6
K7 6
K8 6
K9 6
K10 12
K11 12
K12 12
K13 12
K14 12
K15 12
; # number of continuous time slots resource can fly

param TR:= 
K1 2
K2 2
K3 2
K4 2
K5 2
K6 2
K7 2
K8 2
K9 2
K10 4
K11 4
K12 4
K13 4
K14 4
K15 4
; #  number of continuous time slots resource k needs to rest between flights

param P:= 
K1 36
K2 36
K3 36
K4 36
K5 36
K6 36
K7 36
K8 36
K9 36
K10 36
K11 36
K12 36
K13 36
K14 36
K15 36
; #  number of continuous time slots a pilot can be present including rest times for resource k 

param N:= 
K1 4
K2 4
K3 4
K4 4
K5 4
K6 4
K7 4
K8 4
K9 4
K10 2
K11 2
K12 1
K13 2
K14 1
K15 2
; # max number of flights resource k can fly in the total time period

param A: 
	K1  K2  K3  K4  K5  K6  K7  K8  K9  K10 K11 K12 K13 K14 K15 :=
1	1   1   1   1   1   1   1   1   1   1   1   0   1   0   1   
2	1   1   1   1   1   1   1   1   1   1   1   0   1   0   1   
3	1   1   1   1   1   1   1   1   1   1   1   0   1   0   1   
4	1   1   1   1   1   1   1   1   1   1   1   0   1   0   1   
5	1   1   1   1   1   1   1   1   1   1   1   0   1   0   1   
6	1   1   1   1   1   1   1   1   1   1   1   0   1   0   1   
7	1   1   1   1   1   1   1   1   1   1   1   0   1   0   1   
8	1   1   1   1   1   1   1   1   1   1   1   0   1   0   1   
9	1   1   1   1   1   1   1   1   1   1   1   0   1   0   1   
10	1   1   1   1   1   1   1   1   1   1   1   0   1   0   1   
11	1   1   1   1   1   1   1   1   1   1   1   0   1   0   1   
12	1   1   1   1   1   1   1   1   1   1   1   0   1   0   1   
13	1   1   1   1   1   1   1   1   1   1   1   0   1   0   1   
14	1   1   1   1   1   1   1   1   1   1   1   0   1   0   1   
15	1   1   1   1   1   1   1   1   1   1   1   0   1   0   1   
16	1   1   1   1   1   1   1   1   1   1   1   1   1   0   1   
17	1   1   1   1   1   1   1   1   1   1   1   1   1   0   1   
18	1   1   1   1   1   1   1   1   1   1   1   1   1   1   1   
19	1   1   1   1   1   1   1   1   1   1   1   1   1   1   1   
20	1   1   1   1   1   1   1   1   1   1   1   1   1   1   1   
21	1   1   1   1   1   1   1   1   1   1   1   1   1   1   1   
22	1   1   1   1   1   1   1   1   1   1   1   1   1   1   1   
23	1   1   1   1   1   1   1   1   1   1   1   1   1   1   1   
24	1   1   1   1   1   1   1   1   1   1   1   1   1   1   1   
25	1   1   1   1   1   1   1   1   1   1   1   1   1   1   1   
26	1   1   1   1   1   1   1   1   1   1   1   1   1   1   1   
27	1   1   1   1   1   1   1   1   1   1   1   1   1   1   1   
28	1   1   1   1   1   1   1   1   1   1   1   1   1   1   1   
29	1   1   1   1   1   1   1   1   1   1   1   1   1   1   1   
30	1   1   1   1   1   1   1   1   1   1   1   1   1   1   1   
31	1   1   1   1   1   1   1   1   1   1   1   1   1   1   1   
32	1   1   1   1   1   1   1   1   1   1   1   1   1   1   1   
33	1   1   1   1   1   1   1   1   1   1   1   1   1   1   1   
34	1   1   1   1   1   1   1   1   1   1   1   1   1   1   1   
35	1   1   1   1   1   1   1   1   1   1   1   1   1   1   1   
36	1   1   1   1   1   1   1   1   1   1   1   1   1   1   1   
37	1   1   1   1   1   1   1   1   1   1   1   1   1   1   1   
38	1   1   1   1   1   1   1   1   1   1   1   1   1   1   1   
39	1   1   1   1   1   1   1   1   1   1   1   1   1   1   1   
40	1   1   1   1   1   1   1   1   1   1   1   1   1   1   1   
41	1   1   1   1   1   1   1   1   1   1   1   1   1   1   1   
42	1   1   1   1   1   1   1   1   1   1   1   1   1   1   1   
43	1   1   1   1   1   1   1   1   1   1   1   1   1   1   1   
44	1   1   1   1   1   1   1   1   1   1   1   1   1   1   1   
45	1   1   1   1   1   1   1   1   1   1   1   1   1   1   1   
; # availability of resorce k in time slot t

param B: 
	F1  F2  F3  :=
Q1	0   0   1   
Q2	0   0   0   
; # if front f requires resources of type q

param U: 
	F1  F2  F3  :=
K1	0   0   0   
K2	0   0   0   
K3	0   0   0   
K4	0   0   0   
K5	0   0   0   
K6	0   0   0   
K7	0   0   0   
K8	0   0   0   
K9	0   0   0   
K10	2   2   2   
K11	0   0   0   
K12	2   2   2   
K13	2   2   2   
K14	0   0   0   
K15	0   0   0   
; # transit time of resource

param C:= 
K1 900
K2 900
K3 900
K4 900
K5 900
K6 1500
K7 1500
K8 4500
K9 4500
K10 5500
K11 5500
K12 5500
K13 5500
K14 5500
K15 5500
; #  water capacity of resource k

param S:= 
F1 7
F2 7
F3 10
; # max number of resources that can fly at front f in the same time slot

param D:= 

[*,*,F1 ]:  K1    K2    K3    K4    K5    K6    K7    K8    K9    K10   K11   K12   K13   K14   K15   :=
1           1.64  1.64  1.64  1.64  1.64  1.64  1.64  1.30  1.30  0.98  0.98  0.98  0.98  0.98  0.98  
2           1.64  1.64  1.64  1.64  1.64  1.64  1.64  1.30  1.30  0.98  0.98  0.98  0.98  0.98  0.98  
3           1.64  1.64  1.64  1.64  1.64  1.64  1.64  1.30  1.30  0.98  0.98  0.98  0.98  0.98  0.98  
4           1.64  1.64  1.64  1.64  1.64  1.64  1.64  1.30  1.30  0.98  0.98  0.98  0.98  0.98  0.98  
5           1.64  1.64  1.64  1.64  1.64  1.64  1.64  1.30  1.30  0.98  0.98  0.98  0.98  0.98  0.98  
6           1.64  1.64  1.64  1.64  1.64  1.64  1.64  1.30  1.30  0.98  0.98  0.98  0.98  0.98  0.98  
7           1.64  1.64  1.64  1.64  1.64  1.64  1.64  1.30  1.30  0.98  0.98  0.98  0.98  0.98  0.98  
8           1.64  1.64  1.64  1.64  1.64  1.64  1.64  1.30  1.30  0.98  0.98  0.98  0.98  0.98  0.98  
9           1.64  1.64  1.64  1.64  1.64  1.64  1.64  1.30  1.30  0.98  0.98  0.98  0.98  0.98  0.98  
10          1.64  1.64  1.64  1.64  1.64  1.64  1.64  1.30  1.30  0.98  0.98  0.98  0.98  0.98  0.98  
11          1.64  1.64  1.64  1.64  1.64  1.64  1.64  1.30  1.30  0.98  0.98  0.98  0.98  0.98  0.98  
12          1.64  1.64  1.64  1.64  1.64  1.64  1.64  1.30  1.30  0.98  0.98  0.98  0.98  0.98  0.98  
13          1.64  1.64  1.64  1.64  1.64  1.64  1.64  1.30  1.30  0.98  0.98  0.98  0.98  0.98  0.98  
14          1.64  1.64  1.64  1.64  1.64  1.64  1.64  1.30  1.30  0.98  0.98  0.98  0.98  0.98  0.98  
15          1.64  1.64  1.64  1.64  1.64  1.64  1.64  1.30  1.30  0.98  0.98  0.98  0.98  0.98  0.98  
16          1.64  1.64  1.64  1.64  1.64  1.64  1.64  1.30  1.30  0.98  0.98  0.98  0.98  0.98  0.98  
17          1.64  1.64  1.64  1.64  1.64  1.64  1.64  1.30  1.30  0.98  0.98  0.98  0.98  0.98  0.98  
18          1.64  1.64  1.64  1.64  1.64  1.64  1.64  1.30  1.30  0.98  0.98  0.98  0.98  0.98  0.98  
19          1.64  1.64  1.64  1.64  1.64  1.64  1.64  1.30  1.30  0.98  0.98  0.98  0.98  0.98  0.98  
20          1.64  1.64  1.64  1.64  1.64  1.64  1.64  1.30  1.30  0.98  0.98  0.98  0.98  0.98  0.98  
21          1.64  1.64  1.64  1.64  1.64  1.64  1.64  1.30  1.30  0.98  0.98  0.98  0.98  0.98  0.98  
22          1.64  1.64  1.64  1.64  1.64  1.64  1.64  1.30  1.30  0.98  0.98  0.98  0.98  0.98  0.98  
23          1.64  1.64  1.64  1.64  1.64  1.64  1.64  1.30  1.30  0.98  0.98  0.98  0.98  0.98  0.98  
24          1.64  1.64  1.64  1.64  1.64  1.64  1.64  1.30  1.30  0.98  0.98  0.98  0.98  0.98  0.98  
25          1.55  1.55  1.55  1.55  1.55  1.55  1.55  1.24  1.24  0.93  0.93  0.93  0.93  0.93  0.93  
26          1.55  1.55  1.55  1.55  1.55  1.55  1.55  1.24  1.24  0.93  0.93  0.93  0.93  0.93  0.93  
27          1.55  1.55  1.55  1.55  1.55  1.55  1.55  1.24  1.24  0.93  0.93  0.93  0.93  0.93  0.93  
28          1.55  1.55  1.55  1.55  1.55  1.55  1.55  1.24  1.24  0.93  0.93  0.93  0.93  0.93  0.93  
29          1.55  1.55  1.55  1.55  1.55  1.55  1.55  1.24  1.24  0.93  0.93  0.93  0.93  0.93  0.93  
30          1.55  1.55  1.55  1.55  1.55  1.55  1.55  1.24  1.24  0.93  0.93  0.93  0.93  0.93  0.93  
31          1.55  1.55  1.55  1.55  1.55  1.55  1.55  1.24  1.24  0.93  0.93  0.93  0.93  0.93  0.93  
32          1.55  1.55  1.55  1.55  1.55  1.55  1.55  1.24  1.24  0.93  0.93  0.93  0.93  0.93  0.93  
33          1.55  1.55  1.55  1.55  1.55  1.55  1.55  1.24  1.24  0.93  0.93  0.93  0.93  0.93  0.93  
34          1.64  1.64  1.64  1.64  1.64  1.64  1.64  1.30  1.30  0.98  0.98  0.98  0.98  0.98  0.98  
35          1.64  1.64  1.64  1.64  1.64  1.64  1.64  1.30  1.30  0.98  0.98  0.98  0.98  0.98  0.98  
36          1.64  1.64  1.64  1.64  1.64  1.64  1.64  1.30  1.30  0.98  0.98  0.98  0.98  0.98  0.98  
37          1.64  1.64  1.64  1.64  1.64  1.64  1.64  1.30  1.30  0.98  0.98  0.98  0.98  0.98  0.98  
38          1.64  1.64  1.64  1.64  1.64  1.64  1.64  1.30  1.30  0.98  0.98  0.98  0.98  0.98  0.98  
39          1.64  1.64  1.64  1.64  1.64  1.64  1.64  1.30  1.30  0.98  0.98  0.98  0.98  0.98  0.98  
40          1.64  1.64  1.64  1.64  1.64  1.64  1.64  1.30  1.30  0.98  0.98  0.98  0.98  0.98  0.98  
41          1.64  1.64  1.64  1.64  1.64  1.64  1.64  1.30  1.30  0.98  0.98  0.98  0.98  0.98  0.98  
42          1.64  1.64  1.64  1.64  1.64  1.64  1.64  1.30  1.30  0.98  0.98  0.98  0.98  0.98  0.98  
43          1.64  1.64  1.64  1.64  1.64  1.64  1.64  1.30  1.30  0.98  0.98  0.98  0.98  0.98  0.98  
44          1.64  1.64  1.64  1.64  1.64  1.64  1.64  1.30  1.30  0.98  0.98  0.98  0.98  0.98  0.98  
45          1.64  1.64  1.64  1.64  1.64  1.64  1.64  1.30  1.30  0.98  0.98  0.98  0.98  0.98  0.98  

[*,*,F2 ]:  K1    K2    K3    K4    K5    K6    K7    K8    K9    K10   K11   K12   K13   K14   K15   :=
1           1.60  1.60  1.60  1.60  1.60  1.60  1.60  1.28  1.28  0.96  0.96  0.96  0.96  0.96  0.96  
2           1.60  1.60  1.60  1.60  1.60  1.60  1.60  1.28  1.28  0.96  0.96  0.96  0.96  0.96  0.96  
3           1.60  1.60  1.60  1.60  1.60  1.60  1.60  1.28  1.28  0.96  0.96  0.96  0.96  0.96  0.96  
4           1.60  1.60  1.60  1.60  1.60  1.60  1.60  1.28  1.28  0.96  0.96  0.96  0.96  0.96  0.96  
5           1.60  1.60  1.60  1.60  1.60  1.60  1.60  1.28  1.28  0.96  0.96  0.96  0.96  0.96  0.96  
6           1.60  1.60  1.60  1.60  1.60  1.60  1.60  1.28  1.28  0.96  0.96  0.96  0.96  0.96  0.96  
7           1.60  1.60  1.60  1.60  1.60  1.60  1.60  1.28  1.28  0.96  0.96  0.96  0.96  0.96  0.96  
8           1.60  1.60  1.60  1.60  1.60  1.60  1.60  1.28  1.28  0.96  0.96  0.96  0.96  0.96  0.96  
9           1.60  1.60  1.60  1.60  1.60  1.60  1.60  1.28  1.28  0.96  0.96  0.96  0.96  0.96  0.96  
10          1.60  1.60  1.60  1.60  1.60  1.60  1.60  1.28  1.28  0.96  0.96  0.96  0.96  0.96  0.96  
11          1.60  1.60  1.60  1.60  1.60  1.60  1.60  1.28  1.28  0.96  0.96  0.96  0.96  0.96  0.96  
12          1.60  1.60  1.60  1.60  1.60  1.60  1.60  1.28  1.28  0.96  0.96  0.96  0.96  0.96  0.96  
13          1.60  1.60  1.60  1.60  1.60  1.60  1.60  1.28  1.28  0.96  0.96  0.96  0.96  0.96  0.96  
14          1.60  1.60  1.60  1.60  1.60  1.60  1.60  1.28  1.28  0.96  0.96  0.96  0.96  0.96  0.96  
15          1.60  1.60  1.60  1.60  1.60  1.60  1.60  1.28  1.28  0.96  0.96  0.96  0.96  0.96  0.96  
16          1.60  1.60  1.60  1.60  1.60  1.60  1.60  1.28  1.28  0.96  0.96  0.96  0.96  0.96  0.96  
17          1.60  1.60  1.60  1.60  1.60  1.60  1.60  1.28  1.28  0.96  0.96  0.96  0.96  0.96  0.96  
18          1.60  1.60  1.60  1.60  1.60  1.60  1.60  1.28  1.28  0.96  0.96  0.96  0.96  0.96  0.96  
19          1.60  1.60  1.60  1.60  1.60  1.60  1.60  1.28  1.28  0.96  0.96  0.96  0.96  0.96  0.96  
20          1.60  1.60  1.60  1.60  1.60  1.60  1.60  1.28  1.28  0.96  0.96  0.96  0.96  0.96  0.96  
21          1.60  1.60  1.60  1.60  1.60  1.60  1.60  1.28  1.28  0.96  0.96  0.96  0.96  0.96  0.96  
22          1.60  1.60  1.60  1.60  1.60  1.60  1.60  1.28  1.28  0.96  0.96  0.96  0.96  0.96  0.96  
23          1.60  1.60  1.60  1.60  1.60  1.60  1.60  1.28  1.28  0.96  0.96  0.96  0.96  0.96  0.96  
24          1.60  1.60  1.60  1.60  1.60  1.60  1.60  1.28  1.28  0.96  0.96  0.96  0.96  0.96  0.96  
25          1.52  1.52  1.52  1.52  1.52  1.52  1.52  1.21  1.21  0.91  0.91  0.91  0.91  0.91  0.91  
26          1.52  1.52  1.52  1.52  1.52  1.52  1.52  1.21  1.21  0.91  0.91  0.91  0.91  0.91  0.91  
27          1.52  1.52  1.52  1.52  1.52  1.52  1.52  1.21  1.21  0.91  0.91  0.91  0.91  0.91  0.91  
28          1.52  1.52  1.52  1.52  1.52  1.52  1.52  1.21  1.21  0.91  0.91  0.91  0.91  0.91  0.91  
29          1.52  1.52  1.52  1.52  1.52  1.52  1.52  1.21  1.21  0.91  0.91  0.91  0.91  0.91  0.91  
30          1.52  1.52  1.52  1.52  1.52  1.52  1.52  1.21  1.21  0.91  0.91  0.91  0.91  0.91  0.91  
31          1.52  1.52  1.52  1.52  1.52  1.52  1.52  1.21  1.21  0.91  0.91  0.91  0.91  0.91  0.91  
32          1.52  1.52  1.52  1.52  1.52  1.52  1.52  1.21  1.21  0.91  0.91  0.91  0.91  0.91  0.91  
33          1.52  1.52  1.52  1.52  1.52  1.52  1.52  1.21  1.21  0.91  0.91  0.91  0.91  0.91  0.91  
34          1.60  1.60  1.60  1.60  1.60  1.60  1.60  1.28  1.28  0.96  0.96  0.96  0.96  0.96  0.96  
35          1.60  1.60  1.60  1.60  1.60  1.60  1.60  1.28  1.28  0.96  0.96  0.96  0.96  0.96  0.96  
36          1.60  1.60  1.60  1.60  1.60  1.60  1.60  1.28  1.28  0.96  0.96  0.96  0.96  0.96  0.96  
37          1.60  1.60  1.60  1.60  1.60  1.60  1.60  1.28  1.28  0.96  0.96  0.96  0.96  0.96  0.96  
38          1.60  1.60  1.60  1.60  1.60  1.60  1.60  1.28  1.28  0.96  0.96  0.96  0.96  0.96  0.96  
39          1.60  1.60  1.60  1.60  1.60  1.60  1.60  1.28  1.28  0.96  0.96  0.96  0.96  0.96  0.96  
40          1.60  1.60  1.60  1.60  1.60  1.60  1.60  1.28  1.28  0.96  0.96  0.96  0.96  0.96  0.96  
41          1.60  1.60  1.60  1.60  1.60  1.60  1.60  1.28  1.28  0.96  0.96  0.96  0.96  0.96  0.96  
42          1.60  1.60  1.60  1.60  1.60  1.60  1.60  1.28  1.28  0.96  0.96  0.96  0.96  0.96  0.96  
43          1.60  1.60  1.60  1.60  1.60  1.60  1.60  1.28  1.28  0.96  0.96  0.96  0.96  0.96  0.96  
44          1.60  1.60  1.60  1.60  1.60  1.60  1.60  1.28  1.28  0.96  0.96  0.96  0.96  0.96  0.96  
45          1.60  1.60  1.60  1.60  1.60  1.60  1.60  1.28  1.28  0.96  0.96  0.96  0.96  0.96  0.96  

[*,*,F3 ]:  K1    K2    K3    K4    K5    K6    K7    K8    K9    K10   K11   K12   K13   K14   K15   :=
1           1.65  1.65  1.65  1.65  1.65  1.65  1.65  1.32  1.32  0.99  0.99  0.99  0.99  0.99  0.99  
2           1.65  1.65  1.65  1.65  1.65  1.65  1.65  1.32  1.32  0.99  0.99  0.99  0.99  0.99  0.99  
3           1.65  1.65  1.65  1.65  1.65  1.65  1.65  1.32  1.32  0.99  0.99  0.99  0.99  0.99  0.99  
4           1.65  1.65  1.65  1.65  1.65  1.65  1.65  1.32  1.32  0.99  0.99  0.99  0.99  0.99  0.99  
5           1.65  1.65  1.65  1.65  1.65  1.65  1.65  1.32  1.32  0.99  0.99  0.99  0.99  0.99  0.99  
6           1.65  1.65  1.65  1.65  1.65  1.65  1.65  1.32  1.32  0.99  0.99  0.99  0.99  0.99  0.99  
7           1.65  1.65  1.65  1.65  1.65  1.65  1.65  1.32  1.32  0.99  0.99  0.99  0.99  0.99  0.99  
8           1.65  1.65  1.65  1.65  1.65  1.65  1.65  1.32  1.32  0.99  0.99  0.99  0.99  0.99  0.99  
9           1.65  1.65  1.65  1.65  1.65  1.65  1.65  1.32  1.32  0.99  0.99  0.99  0.99  0.99  0.99  
10          1.65  1.65  1.65  1.65  1.65  1.65  1.65  1.32  1.32  0.99  0.99  0.99  0.99  0.99  0.99  
11          1.65  1.65  1.65  1.65  1.65  1.65  1.65  1.32  1.32  0.99  0.99  0.99  0.99  0.99  0.99  
12          1.65  1.65  1.65  1.65  1.65  1.65  1.65  1.32  1.32  0.99  0.99  0.99  0.99  0.99  0.99  
13          1.65  1.65  1.65  1.65  1.65  1.65  1.65  1.32  1.32  0.99  0.99  0.99  0.99  0.99  0.99  
14          1.65  1.65  1.65  1.65  1.65  1.65  1.65  1.32  1.32  0.99  0.99  0.99  0.99  0.99  0.99  
15          1.65  1.65  1.65  1.65  1.65  1.65  1.65  1.32  1.32  0.99  0.99  0.99  0.99  0.99  0.99  
16          1.65  1.65  1.65  1.65  1.65  1.65  1.65  1.32  1.32  0.99  0.99  0.99  0.99  0.99  0.99  
17          1.65  1.65  1.65  1.65  1.65  1.65  1.65  1.32  1.32  0.99  0.99  0.99  0.99  0.99  0.99  
18          1.65  1.65  1.65  1.65  1.65  1.65  1.65  1.32  1.32  0.99  0.99  0.99  0.99  0.99  0.99  
19          1.65  1.65  1.65  1.65  1.65  1.65  1.65  1.32  1.32  0.99  0.99  0.99  0.99  0.99  0.99  
20          1.65  1.65  1.65  1.65  1.65  1.65  1.65  1.32  1.32  0.99  0.99  0.99  0.99  0.99  0.99  
21          1.65  1.65  1.65  1.65  1.65  1.65  1.65  1.32  1.32  0.99  0.99  0.99  0.99  0.99  0.99  
22          1.65  1.65  1.65  1.65  1.65  1.65  1.65  1.32  1.32  0.99  0.99  0.99  0.99  0.99  0.99  
23          1.65  1.65  1.65  1.65  1.65  1.65  1.65  1.32  1.32  0.99  0.99  0.99  0.99  0.99  0.99  
24          1.65  1.65  1.65  1.65  1.65  1.65  1.65  1.32  1.32  0.99  0.99  0.99  0.99  0.99  0.99  
25          1.57  1.57  1.57  1.57  1.57  1.57  1.57  1.25  1.25  0.94  0.94  0.94  0.94  0.94  0.94  
26          1.57  1.57  1.57  1.57  1.57  1.57  1.57  1.25  1.25  0.94  0.94  0.94  0.94  0.94  0.94  
27          1.57  1.57  1.57  1.57  1.57  1.57  1.57  1.25  1.25  0.94  0.94  0.94  0.94  0.94  0.94  
28          1.57  1.57  1.57  1.57  1.57  1.57  1.57  1.25  1.25  0.94  0.94  0.94  0.94  0.94  0.94  
29          1.57  1.57  1.57  1.57  1.57  1.57  1.57  1.25  1.25  0.94  0.94  0.94  0.94  0.94  0.94  
30          1.57  1.57  1.57  1.57  1.57  1.57  1.57  1.25  1.25  0.94  0.94  0.94  0.94  0.94  0.94  
31          1.57  1.57  1.57  1.57  1.57  1.57  1.57  1.25  1.25  0.94  0.94  0.94  0.94  0.94  0.94  
32          1.57  1.57  1.57  1.57  1.57  1.57  1.57  1.25  1.25  0.94  0.94  0.94  0.94  0.94  0.94  
33          1.57  1.57  1.57  1.57  1.57  1.57  1.57  1.25  1.25  0.94  0.94  0.94  0.94  0.94  0.94  
34          1.65  1.65  1.65  1.65  1.65  1.65  1.65  1.32  1.32  0.99  0.99  0.99  0.99  0.99  0.99  
35          1.65  1.65  1.65  1.65  1.65  1.65  1.65  1.32  1.32  0.99  0.99  0.99  0.99  0.99  0.99  
36          1.65  1.65  1.65  1.65  1.65  1.65  1.65  1.32  1.32  0.99  0.99  0.99  0.99  0.99  0.99  
37          1.65  1.65  1.65  1.65  1.65  1.65  1.65  1.32  1.32  0.99  0.99  0.99  0.99  0.99  0.99  
38          1.65  1.65  1.65  1.65  1.65  1.65  1.65  1.32  1.32  0.99  0.99  0.99  0.99  0.99  0.99  
39          1.65  1.65  1.65  1.65  1.65  1.65  1.65  1.32  1.32  0.99  0.99  0.99  0.99  0.99  0.99  
40          1.65  1.65  1.65  1.65  1.65  1.65  1.65  1.32  1.32  0.99  0.99  0.99  0.99  0.99  0.99  
41          1.65  1.65  1.65  1.65  1.65  1.65  1.65  1.32  1.32  0.99  0.99  0.99  0.99  0.99  0.99  
42          1.65  1.65  1.65  1.65  1.65  1.65  1.65  1.32  1.32  0.99  0.99  0.99  0.99  0.99  0.99  
43          1.65  1.65  1.65  1.65  1.65  1.65  1.65  1.32  1.32  0.99  0.99  0.99  0.99  0.99  0.99  
44          1.65  1.65  1.65  1.65  1.65  1.65  1.65  1.32  1.32  0.99  0.99  0.99  0.99  0.99  0.99  
45          1.65  1.65  1.65  1.65  1.65  1.65  1.65  1.32  1.32  0.99  0.99  0.99  0.99  0.99  0.99  
; # downloads resource k can do at front f in time t if intermediate time slot

param E:= 

[*,*,F1 ]:  K1    K2    K3    K4    K5    K6    K7    K8    K9    K10   K11   K12   K13   K14   K15   :=
1           0.72  0.69  0.75  0.23  0.38  0.56  0.28  0.52  0.07  0.05  0.01  0.32  0.15  0.10  0.50  
2           0.72  0.69  0.75  0.23  0.38  0.56  0.28  0.52  0.07  0.05  0.01  0.32  0.15  0.10  0.50  
3           0.72  0.69  0.75  0.23  0.38  0.56  0.28  0.52  0.07  0.05  0.01  0.32  0.15  0.10  0.50  
4           0.72  0.69  0.75  0.23  0.38  0.56  0.28  0.52  0.07  0.05  0.01  0.32  0.15  0.10  0.50  
5           0.72  0.69  0.75  0.23  0.38  0.56  0.28  0.52  0.07  0.05  0.01  0.32  0.15  0.10  0.50  
6           0.72  0.69  0.75  0.23  0.38  0.56  0.28  0.52  0.07  0.05  0.01  0.32  0.15  0.10  0.50  
7           0.72  0.69  0.75  0.23  0.38  0.56  0.28  0.52  0.07  0.05  0.01  0.32  0.15  0.10  0.50  
8           0.72  0.69  0.75  0.23  0.38  0.56  0.28  0.52  0.07  0.05  0.01  0.32  0.15  0.10  0.50  
9           0.72  0.69  0.75  0.23  0.38  0.56  0.28  0.52  0.07  0.05  0.01  0.32  0.15  0.10  0.50  
10          0.72  0.69  0.75  0.23  0.38  0.56  0.28  0.52  0.07  0.05  0.01  0.32  0.15  0.10  0.50  
11          0.72  0.69  0.75  0.23  0.38  0.56  0.28  0.52  0.07  0.05  0.01  0.32  0.15  0.10  0.50  
12          0.72  0.69  0.75  0.23  0.38  0.56  0.28  0.52  0.07  0.05  0.01  0.32  0.15  0.10  0.50  
13          0.72  0.69  0.75  0.23  0.38  0.56  0.28  0.52  0.07  0.05  0.01  0.32  0.15  0.10  0.50  
14          0.72  0.69  0.75  0.23  0.38  0.56  0.28  0.52  0.07  0.05  0.01  0.32  0.15  0.10  0.50  
15          0.72  0.69  0.75  0.23  0.38  0.56  0.28  0.52  0.07  0.05  0.01  0.32  0.15  0.10  0.50  
16          0.72  0.69  0.75  0.23  0.38  0.56  0.28  0.52  0.07  0.05  0.01  0.32  0.15  0.10  0.50  
17          0.72  0.69  0.75  0.23  0.38  0.56  0.28  0.52  0.07  0.05  0.01  0.32  0.15  0.10  0.50  
18          0.72  0.69  0.75  0.23  0.38  0.56  0.28  0.52  0.07  0.05  0.01  0.32  0.15  0.10  0.50  
19          0.72  0.69  0.75  0.23  0.38  0.56  0.28  0.52  0.07  0.05  0.01  0.32  0.15  0.10  0.50  
20          0.72  0.69  0.75  0.23  0.38  0.56  0.28  0.52  0.07  0.05  0.01  0.32  0.15  0.10  0.50  
21          0.72  0.69  0.75  0.23  0.38  0.56  0.28  0.52  0.07  0.05  0.01  0.32  0.15  0.10  0.50  
22          0.72  0.69  0.75  0.23  0.38  0.56  0.28  0.52  0.07  0.05  0.01  0.32  0.15  0.10  0.50  
23          0.72  0.69  0.75  0.23  0.38  0.56  0.28  0.52  0.07  0.05  0.01  0.32  0.15  0.10  0.50  
24          0.72  0.69  0.75  0.23  0.38  0.56  0.28  0.52  0.07  0.05  0.01  0.32  0.15  0.10  0.50  
25          0.68  0.65  0.72  0.22  0.36  0.53  0.26  0.50  0.06  0.05  0.01  0.31  0.14  0.09  0.47  
26          0.68  0.65  0.72  0.22  0.36  0.53  0.26  0.50  0.06  0.05  0.01  0.31  0.14  0.09  0.47  
27          0.68  0.65  0.72  0.22  0.36  0.53  0.26  0.50  0.06  0.05  0.01  0.31  0.14  0.09  0.47  
28          0.68  0.65  0.72  0.22  0.36  0.53  0.26  0.50  0.06  0.05  0.01  0.31  0.14  0.09  0.47  
29          0.68  0.65  0.72  0.22  0.36  0.53  0.26  0.50  0.06  0.05  0.01  0.31  0.14  0.09  0.47  
30          0.68  0.65  0.72  0.22  0.36  0.53  0.26  0.50  0.06  0.05  0.01  0.31  0.14  0.09  0.47  
31          0.68  0.65  0.72  0.22  0.36  0.53  0.26  0.50  0.06  0.05  0.01  0.31  0.14  0.09  0.47  
32          0.68  0.65  0.72  0.22  0.36  0.53  0.26  0.50  0.06  0.05  0.01  0.31  0.14  0.09  0.47  
33          0.68  0.65  0.72  0.22  0.36  0.53  0.26  0.50  0.06  0.05  0.01  0.31  0.14  0.09  0.47  
34          0.72  0.69  0.75  0.23  0.38  0.56  0.28  0.52  0.07  0.05  0.01  0.32  0.15  0.10  0.50  
35          0.72  0.69  0.75  0.23  0.38  0.56  0.28  0.52  0.07  0.05  0.01  0.32  0.15  0.10  0.50  
36          0.72  0.69  0.75  0.23  0.38  0.56  0.28  0.52  0.07  0.05  0.01  0.32  0.15  0.10  0.50  
37          0.72  0.69  0.75  0.23  0.38  0.56  0.28  0.52  0.07  0.05  0.01  0.32  0.15  0.10  0.50  
38          0.72  0.69  0.75  0.23  0.38  0.56  0.28  0.52  0.07  0.05  0.01  0.32  0.15  0.10  0.50  
39          0.72  0.69  0.75  0.23  0.38  0.56  0.28  0.52  0.07  0.05  0.01  0.32  0.15  0.10  0.50  
40          0.72  0.69  0.75  0.23  0.38  0.56  0.28  0.52  0.07  0.05  0.01  0.32  0.15  0.10  0.50  
41          0.72  0.69  0.75  0.23  0.38  0.56  0.28  0.52  0.07  0.05  0.01  0.32  0.15  0.10  0.50  
42          0.72  0.69  0.75  0.23  0.38  0.56  0.28  0.52  0.07  0.05  0.01  0.32  0.15  0.10  0.50  
43          0.72  0.69  0.75  0.23  0.38  0.56  0.28  0.52  0.07  0.05  0.01  0.32  0.15  0.10  0.50  
44          0.72  0.69  0.75  0.23  0.38  0.56  0.28  0.52  0.07  0.05  0.01  0.32  0.15  0.10  0.50  
45          0.72  0.69  0.75  0.23  0.38  0.56  0.28  0.52  0.07  0.05  0.01  0.32  0.15  0.10  0.50  

[*,*,F2 ]:  K1    K2    K3    K4    K5    K6    K7    K8    K9    K10   K11   K12   K13   K14   K15   :=
1           0.82  0.80  0.74  0.10  0.40  0.50  0.29  0.47  0.09  0.03  0.03  0.39  0.13  0.12  0.43  
2           0.82  0.80  0.74  0.10  0.40  0.50  0.29  0.47  0.09  0.03  0.03  0.39  0.13  0.12  0.43  
3           0.82  0.80  0.74  0.10  0.40  0.50  0.29  0.47  0.09  0.03  0.03  0.39  0.13  0.12  0.43  
4           0.82  0.80  0.74  0.10  0.40  0.50  0.29  0.47  0.09  0.03  0.03  0.39  0.13  0.12  0.43  
5           0.82  0.80  0.74  0.10  0.40  0.50  0.29  0.47  0.09  0.03  0.03  0.39  0.13  0.12  0.43  
6           0.82  0.80  0.74  0.10  0.40  0.50  0.29  0.47  0.09  0.03  0.03  0.39  0.13  0.12  0.43  
7           0.82  0.80  0.74  0.10  0.40  0.50  0.29  0.47  0.09  0.03  0.03  0.39  0.13  0.12  0.43  
8           0.82  0.80  0.74  0.10  0.40  0.50  0.29  0.47  0.09  0.03  0.03  0.39  0.13  0.12  0.43  
9           0.82  0.80  0.74  0.10  0.40  0.50  0.29  0.47  0.09  0.03  0.03  0.39  0.13  0.12  0.43  
10          0.82  0.80  0.74  0.10  0.40  0.50  0.29  0.47  0.09  0.03  0.03  0.39  0.13  0.12  0.43  
11          0.82  0.80  0.74  0.10  0.40  0.50  0.29  0.47  0.09  0.03  0.03  0.39  0.13  0.12  0.43  
12          0.82  0.80  0.74  0.10  0.40  0.50  0.29  0.47  0.09  0.03  0.03  0.39  0.13  0.12  0.43  
13          0.82  0.80  0.74  0.10  0.40  0.50  0.29  0.47  0.09  0.03  0.03  0.39  0.13  0.12  0.43  
14          0.82  0.80  0.74  0.10  0.40  0.50  0.29  0.47  0.09  0.03  0.03  0.39  0.13  0.12  0.43  
15          0.82  0.80  0.74  0.10  0.40  0.50  0.29  0.47  0.09  0.03  0.03  0.39  0.13  0.12  0.43  
16          0.82  0.80  0.74  0.10  0.40  0.50  0.29  0.47  0.09  0.03  0.03  0.39  0.13  0.12  0.43  
17          0.82  0.80  0.74  0.10  0.40  0.50  0.29  0.47  0.09  0.03  0.03  0.39  0.13  0.12  0.43  
18          0.82  0.80  0.74  0.10  0.40  0.50  0.29  0.47  0.09  0.03  0.03  0.39  0.13  0.12  0.43  
19          0.82  0.80  0.74  0.10  0.40  0.50  0.29  0.47  0.09  0.03  0.03  0.39  0.13  0.12  0.43  
20          0.82  0.80  0.74  0.10  0.40  0.50  0.29  0.47  0.09  0.03  0.03  0.39  0.13  0.12  0.43  
21          0.82  0.80  0.74  0.10  0.40  0.50  0.29  0.47  0.09  0.03  0.03  0.39  0.13  0.12  0.43  
22          0.82  0.80  0.74  0.10  0.40  0.50  0.29  0.47  0.09  0.03  0.03  0.39  0.13  0.12  0.43  
23          0.82  0.80  0.74  0.10  0.40  0.50  0.29  0.47  0.09  0.03  0.03  0.39  0.13  0.12  0.43  
24          0.82  0.80  0.74  0.10  0.40  0.50  0.29  0.47  0.09  0.03  0.03  0.39  0.13  0.12  0.43  
25          0.78  0.76  0.70  0.09  0.38  0.47  0.27  0.45  0.08  0.03  0.03  0.37  0.13  0.12  0.41  
26          0.78  0.76  0.70  0.09  0.38  0.47  0.27  0.45  0.08  0.03  0.03  0.37  0.13  0.12  0.41  
27          0.78  0.76  0.70  0.09  0.38  0.47  0.27  0.45  0.08  0.03  0.03  0.37  0.13  0.12  0.41  
28          0.78  0.76  0.70  0.09  0.38  0.47  0.27  0.45  0.08  0.03  0.03  0.37  0.13  0.12  0.41  
29          0.78  0.76  0.70  0.09  0.38  0.47  0.27  0.45  0.08  0.03  0.03  0.37  0.13  0.12  0.41  
30          0.78  0.76  0.70  0.09  0.38  0.47  0.27  0.45  0.08  0.03  0.03  0.37  0.13  0.12  0.41  
31          0.78  0.76  0.70  0.09  0.38  0.47  0.27  0.45  0.08  0.03  0.03  0.37  0.13  0.12  0.41  
32          0.78  0.76  0.70  0.09  0.38  0.47  0.27  0.45  0.08  0.03  0.03  0.37  0.13  0.12  0.41  
33          0.78  0.76  0.70  0.09  0.38  0.47  0.27  0.45  0.08  0.03  0.03  0.37  0.13  0.12  0.41  
34          0.82  0.80  0.74  0.10  0.40  0.50  0.29  0.47  0.09  0.03  0.03  0.39  0.13  0.12  0.43  
35          0.82  0.80  0.74  0.10  0.40  0.50  0.29  0.47  0.09  0.03  0.03  0.39  0.13  0.12  0.43  
36          0.82  0.80  0.74  0.10  0.40  0.50  0.29  0.47  0.09  0.03  0.03  0.39  0.13  0.12  0.43  
37          0.82  0.80  0.74  0.10  0.40  0.50  0.29  0.47  0.09  0.03  0.03  0.39  0.13  0.12  0.43  
38          0.82  0.80  0.74  0.10  0.40  0.50  0.29  0.47  0.09  0.03  0.03  0.39  0.13  0.12  0.43  
39          0.82  0.80  0.74  0.10  0.40  0.50  0.29  0.47  0.09  0.03  0.03  0.39  0.13  0.12  0.43  
40          0.82  0.80  0.74  0.10  0.40  0.50  0.29  0.47  0.09  0.03  0.03  0.39  0.13  0.12  0.43  
41          0.82  0.80  0.74  0.10  0.40  0.50  0.29  0.47  0.09  0.03  0.03  0.39  0.13  0.12  0.43  
42          0.82  0.80  0.74  0.10  0.40  0.50  0.29  0.47  0.09  0.03  0.03  0.39  0.13  0.12  0.43  
43          0.82  0.80  0.74  0.10  0.40  0.50  0.29  0.47  0.09  0.03  0.03  0.39  0.13  0.12  0.43  
44          0.82  0.80  0.74  0.10  0.40  0.50  0.29  0.47  0.09  0.03  0.03  0.39  0.13  0.12  0.43  
45          0.82  0.80  0.74  0.10  0.40  0.50  0.29  0.47  0.09  0.03  0.03  0.39  0.13  0.12  0.43  

[*,*,F3 ]:  K1    K2    K3    K4    K5    K6    K7    K8    K9    K10   K11   K12   K13   K14   K15   :=
1           0.74  0.81  0.64  0.18  0.38  0.51  0.31  0.43  0.11  0.04  0.05  0.40  0.16  0.17  0.49  
2           0.74  0.81  0.64  0.18  0.38  0.51  0.31  0.43  0.11  0.04  0.05  0.40  0.16  0.17  0.49  
3           0.74  0.81  0.64  0.18  0.38  0.51  0.31  0.43  0.11  0.04  0.05  0.40  0.16  0.17  0.49  
4           0.74  0.81  0.64  0.18  0.38  0.51  0.31  0.43  0.11  0.04  0.05  0.40  0.16  0.17  0.49  
5           0.74  0.81  0.64  0.18  0.38  0.51  0.31  0.43  0.11  0.04  0.05  0.40  0.16  0.17  0.49  
6           0.74  0.81  0.64  0.18  0.38  0.51  0.31  0.43  0.11  0.04  0.05  0.40  0.16  0.17  0.49  
7           0.74  0.81  0.64  0.18  0.38  0.51  0.31  0.43  0.11  0.04  0.05  0.40  0.16  0.17  0.49  
8           0.74  0.81  0.64  0.18  0.38  0.51  0.31  0.43  0.11  0.04  0.05  0.40  0.16  0.17  0.49  
9           0.74  0.81  0.64  0.18  0.38  0.51  0.31  0.43  0.11  0.04  0.05  0.40  0.16  0.17  0.49  
10          0.74  0.81  0.64  0.18  0.38  0.51  0.31  0.43  0.11  0.04  0.05  0.40  0.16  0.17  0.49  
11          0.74  0.81  0.64  0.18  0.38  0.51  0.31  0.43  0.11  0.04  0.05  0.40  0.16  0.17  0.49  
12          0.74  0.81  0.64  0.18  0.38  0.51  0.31  0.43  0.11  0.04  0.05  0.40  0.16  0.17  0.49  
13          0.74  0.81  0.64  0.18  0.38  0.51  0.31  0.43  0.11  0.04  0.05  0.40  0.16  0.17  0.49  
14          0.74  0.81  0.64  0.18  0.38  0.51  0.31  0.43  0.11  0.04  0.05  0.40  0.16  0.17  0.49  
15          0.74  0.81  0.64  0.18  0.38  0.51  0.31  0.43  0.11  0.04  0.05  0.40  0.16  0.17  0.49  
16          0.74  0.81  0.64  0.18  0.38  0.51  0.31  0.43  0.11  0.04  0.05  0.40  0.16  0.17  0.49  
17          0.74  0.81  0.64  0.18  0.38  0.51  0.31  0.43  0.11  0.04  0.05  0.40  0.16  0.17  0.49  
18          0.74  0.81  0.64  0.18  0.38  0.51  0.31  0.43  0.11  0.04  0.05  0.40  0.16  0.17  0.49  
19          0.74  0.81  0.64  0.18  0.38  0.51  0.31  0.43  0.11  0.04  0.05  0.40  0.16  0.17  0.49  
20          0.74  0.81  0.64  0.18  0.38  0.51  0.31  0.43  0.11  0.04  0.05  0.40  0.16  0.17  0.49  
21          0.74  0.81  0.64  0.18  0.38  0.51  0.31  0.43  0.11  0.04  0.05  0.40  0.16  0.17  0.49  
22          0.74  0.81  0.64  0.18  0.38  0.51  0.31  0.43  0.11  0.04  0.05  0.40  0.16  0.17  0.49  
23          0.74  0.81  0.64  0.18  0.38  0.51  0.31  0.43  0.11  0.04  0.05  0.40  0.16  0.17  0.49  
24          0.74  0.81  0.64  0.18  0.38  0.51  0.31  0.43  0.11  0.04  0.05  0.40  0.16  0.17  0.49  
25          0.71  0.77  0.61  0.17  0.36  0.49  0.30  0.41  0.10  0.04  0.05  0.38  0.15  0.16  0.46  
26          0.71  0.77  0.61  0.17  0.36  0.49  0.30  0.41  0.10  0.04  0.05  0.38  0.15  0.16  0.46  
27          0.71  0.77  0.61  0.17  0.36  0.49  0.30  0.41  0.10  0.04  0.05  0.38  0.15  0.16  0.46  
28          0.71  0.77  0.61  0.17  0.36  0.49  0.30  0.41  0.10  0.04  0.05  0.38  0.15  0.16  0.46  
29          0.71  0.77  0.61  0.17  0.36  0.49  0.30  0.41  0.10  0.04  0.05  0.38  0.15  0.16  0.46  
30          0.71  0.77  0.61  0.17  0.36  0.49  0.30  0.41  0.10  0.04  0.05  0.38  0.15  0.16  0.46  
31          0.71  0.77  0.61  0.17  0.36  0.49  0.30  0.41  0.10  0.04  0.05  0.38  0.15  0.16  0.46  
32          0.71  0.77  0.61  0.17  0.36  0.49  0.30  0.41  0.10  0.04  0.05  0.38  0.15  0.16  0.46  
33          0.71  0.77  0.61  0.17  0.36  0.49  0.30  0.41  0.10  0.04  0.05  0.38  0.15  0.16  0.46  
34          0.74  0.81  0.64  0.18  0.38  0.51  0.31  0.43  0.11  0.04  0.05  0.40  0.16  0.17  0.49  
35          0.74  0.81  0.64  0.18  0.38  0.51  0.31  0.43  0.11  0.04  0.05  0.40  0.16  0.17  0.49  
36          0.74  0.81  0.64  0.18  0.38  0.51  0.31  0.43  0.11  0.04  0.05  0.40  0.16  0.17  0.49  
37          0.74  0.81  0.64  0.18  0.38  0.51  0.31  0.43  0.11  0.04  0.05  0.40  0.16  0.17  0.49  
38          0.74  0.81  0.64  0.18  0.38  0.51  0.31  0.43  0.11  0.04  0.05  0.40  0.16  0.17  0.49  
39          0.74  0.81  0.64  0.18  0.38  0.51  0.31  0.43  0.11  0.04  0.05  0.40  0.16  0.17  0.49  
40          0.74  0.81  0.64  0.18  0.38  0.51  0.31  0.43  0.11  0.04  0.05  0.40  0.16  0.17  0.49  
41          0.74  0.81  0.64  0.18  0.38  0.51  0.31  0.43  0.11  0.04  0.05  0.40  0.16  0.17  0.49  
42          0.74  0.81  0.64  0.18  0.38  0.51  0.31  0.43  0.11  0.04  0.05  0.40  0.16  0.17  0.49  
43          0.74  0.81  0.64  0.18  0.38  0.51  0.31  0.43  0.11  0.04  0.05  0.40  0.16  0.17  0.49  
44          0.74  0.81  0.64  0.18  0.38  0.51  0.31  0.43  0.11  0.04  0.05  0.40  0.16  0.17  0.49  
45          0.74  0.81  0.64  0.18  0.38  0.51  0.31  0.43  0.11  0.04  0.05  0.40  0.16  0.17  0.49  
; # downloads resource k can do at front f in time t if starting or ending flight

param W: 
	F1        F2        F3        :=
1	558.60    279.30    279.30    
2	2234.40   1117.20   1117.20   
3	2234.40   1117.20   1117.20   
4	2234.40   1117.20   1117.20   
5	2234.40   1117.20   1117.20   
6	2234.40   1117.20   1117.20   
7	2234.40   1117.20   1117.20   
8	2234.40   1117.20   1117.20   
9	2234.40   1117.20   1117.20   
10	2234.40   1117.20   1117.20   
11	2234.40   1117.20   1117.20   
12	2234.40   1117.20   1117.20   
13	2234.40   1117.20   1117.20   
14	2234.40   1117.20   1117.20   
15	2234.40   1117.20   1117.20   
16	2234.40   1117.20   1117.20   
17	2234.40   1117.20   1117.20   
18	2234.40   1117.20   1117.20   
19	2234.40   1117.20   1117.20   
20	2234.40   1117.20   1117.20   
21	2234.40   1117.20   1117.20   
22	2234.40   1117.20   1117.20   
23	2234.40   1117.20   1117.20   
24	2234.40   1117.20   1117.20   
25	2234.40   1117.20   1117.20   
26	2234.40   1117.20   1117.20   
27	2234.40   1117.20   1117.20   
28	2234.40   1117.20   1117.20   
29	2234.40   1117.20   1117.20   
30	2234.40   1117.20   1117.20   
31	2234.40   1117.20   1117.20   
32	2234.40   1117.20   1117.20   
33	2234.40   1117.20   1117.20   
34	2234.40   1117.20   1117.20   
35	2234.40   1117.20   1117.20   
36	2234.40   1117.20   1117.20   
37	2234.40   1117.20   1117.20   
38	2234.40   1117.20   1117.20   
39	2234.40   1117.20   1117.20   
40	2234.40   1117.20   1117.20   
41	2234.40   1117.20   1117.20   
42	2234.40   1117.20   1117.20   
43	2234.40   1117.20   1117.20   
44	2234.40   1117.20   1117.20   
45	558.60    279.30    279.30    
; # water needed at front f in time slot t

param M := 100000000; 

param a1:= 10000000;

param a2:= 100;

param a3:= 0.0001;
